substructor-2/substructor_formal_bmc/model/design_smt2.smt2
; SMT-LIBv2 description generated by Yosys 0.50+56 (git sha1 9106d6b3b, g++ 11.4.0-1ubuntu1~22.04 -fPIC -O3)
; yosys-smt2-module substructor
(declare-sort |substructor_s| 0)
(declare-fun |substructor_is| (|substructor_s|) Bool)
(declare-fun |substructor#0| (|substructor_s|) (_ BitVec 64)) ; \a
(declare-fun |substructor#1| (|substructor_s|) (_ BitVec 64)) ; \b
(define-fun |substructor#2| ((state |substructor_s|)) (_ BitVec 64) (bvnot (|substructor#1| state))) ; $not$substructor.v:16$7_Y
(define-fun |substructor#3| ((state |substructor_s|)) (_ BitVec 64) (bvadd (|substructor#2| state) #b0000000000000000000000000000000000000000000000000000000000000001)) ; $add$substructor.v:16$8_Y
(define-fun |substructor#4| ((state |substructor_s|)) (_ BitVec 64) (bvadd (|substructor#0| state) (|substructor#3| state))) ; \y
; yosys-smt2-output y 64
; yosys-smt2-wire y 64
(define-fun |substructor_n y| ((state |substructor_s|)) (_ BitVec 64) (|substructor#4| state))
; yosys-smt2-input b 64
; yosys-smt2-wire b 64
; yosys-smt2-witness {"offset": 0, "path": ["\\b"], "smtname": "b", "smtoffset": 0, "type": "input", "width": 64}
(define-fun |substructor_n b| ((state |substructor_s|)) (_ BitVec 64) (|substructor#1| state))
; yosys-smt2-input a 64
; yosys-smt2-wire a 64
; yosys-smt2-witness {"offset": 0, "path": ["\\a"], "smtname": "a", "smtoffset": 0, "type": "input", "width": 64}
(define-fun |substructor_n a| ((state |substructor_s|)) (_ BitVec 64) (|substructor#0| state))
(define-fun |substructor_a| ((state |substructor_s|)) Bool true)
(define-fun |substructor_u| ((state |substructor_s|)) Bool true)
(define-fun |substructor_i| ((state |substructor_s|)) Bool true)
(define-fun |substructor_h| ((state |substructor_s|)) Bool true)
(define-fun |substructor_t| ((state |substructor_s|) (next_state |substructor_s|)) Bool true) ; end of module substructor
; yosys-smt2-module substructor_formal
(declare-sort |substructor_formal_s| 0)
(declare-fun |substructor_formal_is| (|substructor_formal_s|) Bool)
; yosys-smt2-cell substructor substructor
; yosys-smt2-witness {"path": ["\\substructor"], "smtname": "substructor", "type": "cell"}
(declare-fun |substructor_formal#0| (|substructor_formal_s|) (_ BitVec 64)) ; \y
(declare-fun |substructor_formal_h substructor| (|substructor_formal_s|) |substructor_s|)
; yosys-smt2-output y 64
; yosys-smt2-wire y 64
(define-fun |substructor_formal_n y| ((state |substructor_formal_s|)) (_ BitVec 64) (|substructor_formal#0| state))
(declare-fun |substructor_formal#1| (|substructor_formal_s|) (_ BitVec 64)) ; \b
; yosys-smt2-input b 64
; yosys-smt2-wire b 64
; yosys-smt2-witness {"offset": 0, "path": ["\\b"], "smtname": "b", "smtoffset": 0, "type": "input", "width": 64}
(define-fun |substructor_formal_n b| ((state |substructor_formal_s|)) (_ BitVec 64) (|substructor_formal#1| state))
(declare-fun |substructor_formal#2| (|substructor_formal_s|) (_ BitVec 64)) ; \a
; yosys-smt2-input a 64
; yosys-smt2-wire a 64
; yosys-smt2-witness {"offset": 0, "path": ["\\a"], "smtname": "a", "smtoffset": 0, "type": "input", "width": 64}
(define-fun |substructor_formal_n a| ((state |substructor_formal_s|)) (_ BitVec 64) (|substructor_formal#2| state))
(define-fun |substructor_formal#3| ((state |substructor_formal_s|)) (_ BitVec 64) (bvsub (|substructor_formal#2| state) (|substructor_formal#1| state))) ; $sub$substructor_formal.v:21$3_Y
(define-fun |substructor_formal#4| ((state |substructor_formal_s|)) Bool (= (|substructor_formal#0| state) (|substructor_formal#3| state))) ; $eq$substructor_formal.v:21$4_Y
; yosys-smt2-assert 0 _witness_.check_assert_substructor_formal_v_21_2 substructor_formal.v:21.5-21.23
(define-fun |substructor_formal_a 0| ((state |substructor_formal_s|)) Bool (or (|substructor_formal#4| state) (not true))) ; _witness_.check_assert_substructor_formal_v_21_2
(define-fun |substructor_formal_a| ((state |substructor_formal_s|)) Bool (and
  (|substructor_formal_a 0| state)
  (|substructor_a| (|substructor_formal_h substructor| state))
))
(define-fun |substructor_formal_u| ((state |substructor_formal_s|)) Bool 
  (|substructor_u| (|substructor_formal_h substructor| state))
)
(define-fun |substructor_formal_i| ((state |substructor_formal_s|)) Bool 
  (|substructor_i| (|substructor_formal_h substructor| state))
)
(define-fun |substructor_formal_h| ((state |substructor_formal_s|)) Bool (and
  (= (|substructor_formal_is| state) (|substructor_is| (|substructor_formal_h substructor| state)))
  (= (|substructor_formal#0| state) (|substructor_n y| (|substructor_formal_h substructor| state))) ; substructor.y
  (= (|substructor_formal#1| state) (|substructor_n b| (|substructor_formal_h substructor| state))) ; substructor.b
  (= (|substructor_formal#2| state) (|substructor_n a| (|substructor_formal_h substructor| state))) ; substructor.a
  (|substructor_h| (|substructor_formal_h substructor| state))
))
(define-fun |substructor_formal_t| ((state |substructor_formal_s|) (next_state |substructor_formal_s|)) Bool 
  (|substructor_t| (|substructor_formal_h substructor| state) (|substructor_formal_h substructor| next_state))
) ; end of module substructor_formal
; yosys-smt2-topmod substructor_formal
; end of yosys output
